c ligne décrivant le problème (noeuds et arcs)
p max 6 8
c noeuds source
n 1 s
c neoud arrivé 
n 6 t
c lignes dérivant les arcs (du noeud, au noeud, capacité maximale)
a 1 2 10
a 1 3 10
a 2 5 6
a 3 2 6
a 3 4 10
a 4 5 9
a 4 6 6
a 5 6 10
c
c End of file
